(set-option :produce-models true)
(set-logic QF_UF)
(declare-fun p68() Bool)
(declare-fun p56() Bool)
(declare-fun p53() Bool)
(declare-fun p64() Bool)
(declare-fun p79() Bool)
(declare-fun p47() Bool)
(declare-fun p45() Bool)
(declare-fun p43() Bool)
(declare-fun p4() Bool)
(declare-fun p10() Bool)
(declare-fun p52() Bool)
(declare-fun p11() Bool)
(declare-fun p17() Bool)
(declare-fun p14() Bool)
(declare-fun p67() Bool)
(declare-fun p61() Bool)
(declare-fun p8() Bool)
(declare-fun p51() Bool)
(declare-fun p28() Bool)
(declare-fun p39() Bool)
(declare-fun p9() Bool)
(declare-fun p46() Bool)
(declare-fun p1() Bool)
(declare-fun p20() Bool)
(declare-fun p6() Bool)
(declare-fun p54() Bool)
(declare-fun p40() Bool)
(declare-fun p74() Bool)
(declare-fun p73() Bool)
(declare-fun p70() Bool)
(declare-fun p76() Bool)
(declare-fun p69() Bool)
(declare-fun p77() Bool)
(declare-fun p19() Bool)
(declare-fun p66() Bool)
(declare-fun p27() Bool)
(declare-fun p21() Bool)
(declare-fun p26() Bool)
(declare-fun p63() Bool)
(declare-fun p13() Bool)
(declare-fun p75() Bool)
(declare-fun p59() Bool)
(declare-fun p44() Bool)
(declare-fun p18() Bool)
(declare-fun p29() Bool)
(declare-fun p55() Bool)
(declare-fun p24() Bool)
(declare-fun p0() Bool)
(declare-fun p15() Bool)
(declare-fun p35() Bool)
(declare-fun p32() Bool)
(declare-fun p72() Bool)
(declare-fun p31() Bool)
(declare-fun p3() Bool)
(declare-fun p50() Bool)
(declare-fun p23() Bool)
(declare-fun p57() Bool)
(declare-fun p22() Bool)
(declare-fun p33() Bool)
(declare-fun p37() Bool)
(declare-fun p16() Bool)
(declare-fun p2() Bool)
(declare-fun p60() Bool)
(declare-fun p25() Bool)
(declare-fun p49() Bool)
(declare-fun p41() Bool)
(declare-fun p38() Bool)
(declare-fun p36() Bool)
(declare-fun p48() Bool)
(declare-fun p78() Bool)
(declare-fun p42() Bool)
(declare-fun p30() Bool)
(declare-fun p7() Bool)
(declare-fun p65() Bool)
(declare-fun p62() Bool)
(declare-fun p58() Bool)
(declare-fun p34() Bool)
(declare-fun p5() Bool)
(declare-fun p12() Bool)
(declare-fun p71() Bool)
(assert
(and (or (not p68) (not p56) p56) (or (not p53) (not p64) p79) (or p47 (not p45) p43) (or p4 (not p10) p52) (or p11 (not p17) (not p53)) (or (not p14) (not p67) (not p61)) (or (not p8) p51 p43) (or p28 (not p39) p9) (or (not p46) (not p1) (not p46)) (or (not p20) p14 (not p6)) (or p54 p40 (not p74)) (or p40 p40 p73) (or p70 p54 (not p76)) (or p67 (not p64) p69) (or (not p77) (not p68) (not p19)) (or (not p56) p8 p28) (or (not p66) (not p27) (not p21)) (or p26 (not p9) p52) (or p47 (not p63) p51) (or p47 p61 p4) (or p13 p75 p59) (or p68 p6 (not p44)) (or p73 p51 (not p18)) (or p20 (not p29) p55) (or p54 (not p24) p20) (or p54 p0 (not p66)) (or (not p15) p6 (not p35)) (or p46 p4 (not p47)) (or (not p1) (not p17) p32) (or p13 (not p8) p72) (or p31 p75 p3) (or (not p73) p27 p55) (or p50 p23 (not p1)) (or p63 p57 p52) (or (not p59) (not p0) (not p22)) (or p55 p63 p29) (or (not p1) p9 p75) (or p35 (not p33) p8) (or p56 (not p73) p37) (or (not p44) p51 (not p39)) (or (not p16) p14 (not p20)) (or (not p55) (not p54) p70) (or (not p61) p2 (not p60)) (or (not p66) p44 (not p11)) (or p0 p25 p46) (or p52 p73 (not p6)) (or p45 (not p76) p40) (or (not p46) p49 p22) (or (not p27) (not p33) (not p41)) (or (not p73) p49 (not p46)) (or (not p61) p38 (not p38)) (or p54 p36 p48) (or p4 (not p22) p46) (or p57 (not p78) (not p54)) (or p10 p68 (not p15)) (or p39 (not p40) p3) (or (not p67) (not p56) (not p45)) (or (not p59) (not p0) p45) (or p42 p36 (not p8)) (or (not p30) (not p55) (not p14)) (or (not p19) p9 p63) (or (not p37) p44 p37) (or p44 (not p4) (not p79)) (or p59 (not p7) p50) (or p53 p43 (not p15)) (or p29 (not p66) (not p15)) (or p50 p10 p39) (or p37 p49 p0) (or (not p23) (not p45) p11) (or (not p69) (not p6) p11) (or p50 p51 p77) (or p38 p23 p52) (or (not p22) p72 (not p15)) (or (not p24) (not p65) (not p23)) (or (not p4) (not p20) (not p76)) (or (not p59) p9 (not p26)) (or p10 p14 p26) (or (not p78) (not p74) (not p57)) (or p14 (not p21) (not p50)) (or (not p0) p75 (not p52)) (or p56 p74 (not p17)) (or p17 p14 p68) (or p36 p50 (not p46)) (or p46 (not p62) (not p45)) (or (not p74) (not p58) p9) (or p34 p66 p13) (or (not p4) (not p5) p9) (or (not p57) p0 p4) (or (not p17) p17 (not p26)) (or p36 (not p9) (not p48)) (or p53 (not p23) (not p9)) (or p19 (not p41) (not p65)) (or p68 p3 (not p5)) (or (not p60) p62 p58) (or (not p24) (not p30) p62) (or p63 p27 p53) (or (not p58) p32 p32) (or p26 p55 (not p60)) (or (not p47) p55 p76) (or p10 (not p30) p57) (or (not p43) p57 p32) (or (not p15) (not p11) p1) (or (not p18) p27 (not p47)) (or p52 (not p78) p61) (or p44 (not p73) p12) (or (not p36) p26 p21) (or p57 p39 (not p69)) (or p79 (not p11) p34) (or p65 (not p18) (not p57)) (or (not p12) p32 p28) (or p12 p13 p77) (or p73 (not p68) (not p63)) (or p68 (not p1) p57) (or (not p62) (not p30) (not p19)) (or (not p14) (not p32) (not p54)) (or p36 (not p55) p69) (or p10 (not p37) p71) (or p58 p61 p45) (or p17 p4 p75) (or p23 (not p1) (not p24)) (or p31 (not p1) (not p21)) (or p46 (not p54) p37) (or (not p27) (not p59) (not p66)) (or p24 p37 p18) (or p79 (not p73) p46) (or p60 (not p27) (not p68)) (or (not p30) p35 p44) (or p0 p20 p44) (or p12 (not p65) p46) (or (not p67) p52 p7) (or (not p62) (not p20) p15) (or p35 p48 p67) (or p56 p74 p22) (or (not p79) (not p15) (not p7)) (or (not p51) (not p15) p24) (or (not p67) p5 p13) (or (not p15) (not p14) p21) (or (not p55) (not p63) (not p13)) (or (not p71) p25 (not p5)) (or (not p40) p77 (not p16)) (or (not p63) p2 (not p74)) (or p42 (not p7) p56) (or p50 p47 p70) (or (not p6) (not p71) p5) (or p59 (not p52) (not p13)) (or (not p45) p11 (not p6)) (or p57 (not p27) (not p43)) (or (not p67) p61 p53) (or p34 p66 (not p53)) (or (not p45) p59 p20) (or (not p61) (not p11) p65) (or (not p27) (not p7) (not p40)) (or (not p38) p34 p12) (or (not p20) p21 (not p74)) (or (not p25) p27 p15) (or p25 (not p40) (not p78)) (or p32 (not p41) (not p69)) (or (not p51) p14 p31) (or (not p59) p16 p6) (or p60 (not p44) p52) (or p72 (not p11) (not p55)) (or (not p35) (not p69) (not p12)) (or p76 p60 (not p46)) (or (not p28) p51 (not p44)) (or (not p41) p74 p10) (or p17 (not p27) (not p41)) (or (not p67) p57 p19) (or p47 p6 (not p17)) (or (not p11) p66 p56) (or p28 p58 p74) (or p27 p22 p22) (or (not p52) (not p28) (not p29)) (or p65 p10 (not p23)) (or (not p68) (not p9) p60) (or p77 p22 (not p40)) (or p67 p0 p66) (or (not p75) (not p13) p58) (or p74 (not p50) p41) (or (not p48) (not p32) p41) (or p7 p57 (not p57)) (or p29 p14 p78) (or (not p55) p41 p44) (or p54 p24 (not p56)) (or (not p18) p79 (not p66)) (or p69 (not p49) (not p73)) (or (not p20) (not p33) p26) (or (not p41) p3 p28) (or (not p3) p62 (not p33)) (or p51 (not p15) p6) (or p12 (not p67) (not p54)) (or (not p11) p1 (not p23)) (or (not p30) (not p33) p40) (or (not p10) p10 (not p21)) (or (not p8) p37 (not p56)) (or p35 p76 (not p35)) (or (not p31) p5 (not p79)) (or (not p28) p71 p8) (or p31 (not p77) p50) (or p76 p7 (not p60)) (or (not p52) p31 p68) (or (not p27) p19 (not p15)) (or (not p64) (not p57) p8) (or (not p79) p73 p69) (or p47 p3 p72) (or p4 p68 (not p28)) (or p23 (not p4) (not p50)) (or p25 (not p48) (not p47)) (or p61 p59 (not p48)) (or p77 p40 p10) (or (not p17) p47 (not p56)) (or p0 (not p74) (not p44)) (or (not p29) (not p10) (not p45)) (or (not p7) p3 p63) (or p69 p34 p33) (or p39 (not p70) p11) (or p8 (not p67) (not p65)) (or (not p38) (not p74) (not p10)) (or p71 p21 p1) (or p9 (not p16) (not p68)) (or p65 p34 (not p70)) (or (not p68) (not p69) p79) (or p51 p55 (not p22)) (or p74 p51 (not p28)) (or p65 p46 (not p37)) (or p13 p26 p38) (or (not p12) p18 p37) (or p17 (not p48) (not p26)) (or p27 (not p48) p7) (or p44 (not p45) (not p11)) (or p54 p16 (not p79)) (or p58 p36 p64) (or (not p46) p27 (not p19)) (or (not p60) p27 p8) (or p31 (not p38) p19) (or p65 p15 p78) (or (not p20) p16 p76) (or p34 p30 (not p6)) (or (not p30) p68 p39) (or p66 p56 (not p24)) (or (not p62) (not p53) p14) (or (not p63) (not p3) (not p42)) (or (not p45) p62 p15) (or (not p35) p38 (not p32)) (or p65 (not p26) p77) (or p44 p63 (not p3)) (or (not p49) (not p18) p65) (or p75 (not p32) p22) (or (not p41) p1 (not p18)) (or p21 (not p73) (not p9)) (or p12 p62 p75) (or p4 p14 p68) (or p0 (not p65) p59) (or (not p15) p9 p25) (or (not p52) p21 p74) (or (not p51) p0 (not p79)) (or p51 (not p31) (not p21)) (or p77 p39 (not p21)) (or (not p75) p22 p49) (or p18 (not p51) p33) (or (not p9) p16 p49) (or p21 (not p22) (not p64)) (or (not p51) p49 (not p44)) (or p27 p11 (not p73)) (or (not p73) p37 p41) (or p57 (not p23) (not p77)) (or p20 (not p14) (not p71)) (or (not p61) p20 (not p12)) (or (not p47) p77 p5) (or p41 (not p3) (not p0)) (or p68 p68 p38) (or p3 (not p26) p45) (or (not p67) p72 (not p69)) (or (not p61) p57 p22) (or (not p11) (not p27) p42) (or p7 (not p15) p0) (or p13 (not p6) (not p21)) (or (not p23) (not p61) p39) (or p25 p22 (not p38)) (or p47 (not p68) (not p53)) (or (not p17) (not p36) (not p48)) (or (not p47) p10 p4) (or p29 (not p56) p68) (or p23 (not p40) (not p72)) (or (not p11) p55 p11) (or p32 (not p6) p2) (or p60 p10 (not p0)) (or (not p4) p53 (not p62)) (or p62 (not p0) (not p71)) (or (not p71) p44 (not p61)) (or (not p18) (not p14) (not p23)) (or (not p48) (not p2) p18) (or p23 (not p2) p57) (or p3 p16 (not p2)) (or p1 p75 (not p52)) (or (not p41) (not p10) (not p6)) (or (not p17) (not p75) (not p34)) (or p31 (not p19) (not p76)) (or p28 p14 p0) (or p61 (not p66) (not p61)) (or (not p45) p22 (not p78)) (or p67 (not p47) (not p7)) (or p7 (not p32) p60) (or (not p57) (not p34) p12) (or (not p71) (not p50) (not p19)) (or p66 p69 (not p74)) (or (not p7) p2 p6) (or p56 (not p50) p74) (or (not p64) p74 (not p17)) (or p38 (not p74) (not p71)) (or p56 p26 p60) (or (not p47) p29 (not p69)) (or p43 (not p72) p39) (or (not p48) (not p40) (not p37)) (or (not p23) p32 p25) (or (not p28) (not p11) p60) (or p30 p31 p49) (or (not p51) p41 p54) (or p53 (not p49) (not p50)) (or p23 (not p47) (not p52)) (or (not p48) p77 p53) (or p39 (not p22) p76) (or p13 (not p39) p67) (or (not p41) (not p56) p58) (or p0 (not p66) p28) (or p50 (not p6) p29) (or (not p76) p59 (not p68)) (or (not p66) (not p28) (not p64)) (or (not p17) p25 p27) (or p57 (not p11) (not p48)) (or p3 (not p0) p59) (or p63 p56 p11) (or p73 (not p40) (not p21)) (or (not p14) p31 (not p7)) (or (not p34) p53 p21) (or p48 p76 (not p49)) (or (not p8) p30 (not p4)) (or p59 p4 p35))
)
(check-sat)
(get-model)
